; benchmark generated from python API
(set-info :status unknown)
(declare-fun syscall_stub_newfstatat_83_64 () (_ BitVec 64))
(declare-fun mem_c0000f45_79_992 () (_ BitVec 992))
(declare-fun mem_c0001010_98_32 () (_ BitVec 32))
(declare-fun mem_ffc0000000000001_289_64 () (_ BitVec 64))
(declare-fun mem_ffc0000000000011_288_32 () (_ BitVec 32))
(assert
 (let ((?x47 ((_ extract 31 0) syscall_stub_newfstatat_83_64)))
 (let (($x52 (bvule ?x47 (_ bv4294963200 32))))
 (not $x52))))
(assert
 (let ((?x3699 ((_ extract 891 891) mem_c0000f45_79_992)))
 (let (($x4297 (= (_ bv0 1) ?x3699)))
 (not $x4297))))
(assert
 (let ((?x2189 ((_ extract 900 900) mem_c0000f45_79_992)))
 (= (_ bv0 1) ?x2189)))
(assert
 (let ((?x644 ((_ extract 647 640) mem_c0000f45_79_992)))
 (let ((?x3676 ((_ extract 639 632) mem_c0000f45_79_992)))
 (let ((?x4549 ((_ extract 631 624) mem_c0000f45_79_992)))
 (let ((?x636 ((_ extract 623 616) mem_c0000f45_79_992)))
 (let ((?x672 ((_ extract 615 608) mem_c0000f45_79_992)))
 (let ((?x784 ((_ extract 607 600) mem_c0000f45_79_992)))
 (let ((?x18745 (concat (concat ((_ extract 591 584) mem_c0000f45_79_992) ((_ extract 599 592) mem_c0000f45_79_992)) ?x784)))
 (let ((?x23636 (concat (concat (concat (concat (concat ?x18745 ?x672) ?x636) ?x4549) ?x3676) ?x644)))
 (let ((?x3977 ((_ extract 583 576) mem_c0000f45_79_992)))
 (let ((?x935 ((_ extract 575 568) mem_c0000f45_79_992)))
 (let ((?x4611 ((_ extract 567 560) mem_c0000f45_79_992)))
 (let ((?x3400 ((_ extract 559 552) mem_c0000f45_79_992)))
 (let ((?x3784 ((_ extract 551 544) mem_c0000f45_79_992)))
 (let ((?x3913 ((_ extract 543 536) mem_c0000f45_79_992)))
 (let ((?x12701 (concat (concat ((_ extract 527 520) mem_c0000f45_79_992) ((_ extract 535 528) mem_c0000f45_79_992)) ?x3913)))
 (let ((?x13258 (concat ?x12701 ?x3784)))
 (let ((?x13066 (concat (concat (concat (concat ?x13258 ?x3400) ?x4611) ?x935) ?x3977)))
 (bvule ?x13066 ?x23636)))))))))))))))))))
(assert
 (let ((?x8705 ((_ extract 888 888) mem_c0000f45_79_992)))
 (let (($x9102 (= (_ bv0 1) ?x8705)))
 (not $x9102))))
(assert
 (let ((?x3977 ((_ extract 583 576) mem_c0000f45_79_992)))
 (let ((?x935 ((_ extract 575 568) mem_c0000f45_79_992)))
 (let ((?x4611 ((_ extract 567 560) mem_c0000f45_79_992)))
 (let ((?x3400 ((_ extract 559 552) mem_c0000f45_79_992)))
 (let ((?x3784 ((_ extract 551 544) mem_c0000f45_79_992)))
 (let ((?x3913 ((_ extract 543 536) mem_c0000f45_79_992)))
 (let ((?x12701 (concat (concat ((_ extract 527 520) mem_c0000f45_79_992) ((_ extract 535 528) mem_c0000f45_79_992)) ?x3913)))
 (let ((?x13258 (concat ?x12701 ?x3784)))
 (let ((?x13066 (concat (concat (concat (concat ?x13258 ?x3400) ?x4611) ?x935) ?x3977)))
 (let ((?x2427 ((_ extract 775 768) mem_c0000f45_79_992)))
 (let ((?x2419 ((_ extract 767 760) mem_c0000f45_79_992)))
 (let ((?x2429 ((_ extract 759 752) mem_c0000f45_79_992)))
 (let ((?x2417 ((_ extract 751 744) mem_c0000f45_79_992)))
 (let ((?x2410 ((_ extract 743 736) mem_c0000f45_79_992)))
 (let ((?x2411 ((_ extract 735 728) mem_c0000f45_79_992)))
 (let ((?x4124 (concat (concat ((_ extract 719 712) mem_c0000f45_79_992) ((_ extract 727 720) mem_c0000f45_79_992)) ?x2411)))
 (let ((?x4642 (concat ?x4124 ?x2410)))
 (let ((?x3823 (concat (concat (concat (concat ?x4642 ?x2417) ?x2429) ?x2419) ?x2427)))
 (bvule ?x3823 ?x13066))))))))))))))))))))
(assert
 (let ((?x14887 ((_ extract 327 320) mem_c0000f45_79_992)))
 (let ((?x14869 ((_ extract 319 312) mem_c0000f45_79_992)))
 (let ((?x14893 ((_ extract 311 304) mem_c0000f45_79_992)))
 (let ((?x14875 ((_ extract 303 296) mem_c0000f45_79_992)))
 (let ((?x14872 ((_ extract 295 288) mem_c0000f45_79_992)))
 (let ((?x14857 ((_ extract 287 280) mem_c0000f45_79_992)))
 (let ((?x15107 (concat (concat ((_ extract 271 264) mem_c0000f45_79_992) ((_ extract 279 272) mem_c0000f45_79_992)) ?x14857)))
 (let ((?x15071 (concat (concat (concat (concat (concat ?x15107 ?x14872) ?x14875) ?x14893) ?x14869) ?x14887)))
 (let ((?x15059 ((_ extract 199 192) mem_c0000f45_79_992)))
 (let ((?x15057 ((_ extract 191 184) mem_c0000f45_79_992)))
 (let ((?x15055 ((_ extract 183 176) mem_c0000f45_79_992)))
 (let ((?x15053 ((_ extract 175 168) mem_c0000f45_79_992)))
 (let ((?x15049 ((_ extract 167 160) mem_c0000f45_79_992)))
 (let ((?x15050 ((_ extract 159 152) mem_c0000f45_79_992)))
 (let ((?x21207 (concat (concat ((_ extract 143 136) mem_c0000f45_79_992) ((_ extract 151 144) mem_c0000f45_79_992)) ?x15050)))
 (let ((?x20542 (concat (concat (concat (concat (concat ?x21207 ?x15049) ?x15053) ?x15055) ?x15057) ?x15059)))
 (bvule ?x20542 ?x15071))))))))))))))))))
(assert
 (let ((?x11985 ((_ extract 135 128) mem_c0000f45_79_992)))
 (= (_ bv1 8) ?x11985)))
(assert
 (let ((?x13685 ((_ extract 127 120) mem_c0000f45_79_992)))
 (= (_ bv0 8) ?x13685)))
(assert
 (let ((?x13262 ((_ extract 119 112) mem_c0000f45_79_992)))
 (= (_ bv0 8) ?x13262)))
(assert
 (let ((?x13139 ((_ extract 111 104) mem_c0000f45_79_992)))
 (= (_ bv0 8) ?x13139)))
(assert
 (let ((?x12096 ((_ extract 103 96) mem_c0000f45_79_992)))
 (= (_ bv0 8) ?x12096)))
(assert
 (let ((?x12093 ((_ extract 95 88) mem_c0000f45_79_992)))
 (= (_ bv0 8) ?x12093)))
(assert
 (let ((?x12627 ((_ extract 87 80) mem_c0000f45_79_992)))
 (= (_ bv192 8) ?x12627)))
(assert
 (let ((?x12622 ((_ extract 79 72) mem_c0000f45_79_992)))
 (= (_ bv255 8) ?x12622)))
(assert
 (let ((?x2357 ((_ extract 815 808) mem_c0000f45_79_992)))
 (let ((?x2417 ((_ extract 751 744) mem_c0000f45_79_992)))
 (let (($x1690 (= ?x2417 ?x2357)))
 (let (($x3670 (not $x1690)))
 (let ((?x2362 ((_ extract 807 800) mem_c0000f45_79_992)))
 (let ((?x2410 ((_ extract 743 736) mem_c0000f45_79_992)))
 (let (($x1703 (= ?x2410 ?x2362)))
 (let (($x3664 (not $x1703)))
 (let ((?x2345 ((_ extract 783 776) mem_c0000f45_79_992)))
 (let ((?x2400 ((_ extract 719 712) mem_c0000f45_79_992)))
 (let (($x1701 (= ?x2400 ?x2345)))
 (let (($x3671 (not $x1701)))
 (let ((?x2363 ((_ extract 799 792) mem_c0000f45_79_992)))
 (let ((?x2411 ((_ extract 735 728) mem_c0000f45_79_992)))
 (let (($x1704 (= ?x2411 ?x2363)))
 (let (($x3672 (not $x1704)))
 (let ((?x2346 ((_ extract 791 784) mem_c0000f45_79_992)))
 (let ((?x2401 ((_ extract 727 720) mem_c0000f45_79_992)))
 (let (($x1693 (= ?x2401 ?x2346)))
 (let (($x4136 (not $x1693)))
 (let ((?x2364 ((_ extract 831 824) mem_c0000f45_79_992)))
 (let ((?x2419 ((_ extract 767 760) mem_c0000f45_79_992)))
 (let (($x1155 (= ?x2419 ?x2364)))
 (let (($x4137 (not $x1155)))
 (let ((?x2374 ((_ extract 839 832) mem_c0000f45_79_992)))
 (let ((?x2427 ((_ extract 775 768) mem_c0000f45_79_992)))
 (let (($x1152 (= ?x2427 ?x2374)))
 (let (($x4139 (not $x1152)))
 (let ((?x2349 ((_ extract 823 816) mem_c0000f45_79_992)))
 (let ((?x2429 ((_ extract 759 752) mem_c0000f45_79_992)))
 (let (($x1714 (= ?x2429 ?x2349)))
 (let (($x4539 (not $x1714)))
 (let (($x6038 (or $x4539 $x4139 $x4137 $x4136 $x3672 $x3671 $x3664 $x3670)))
 (let (($x9215 (not $x6038)))
 (let ((?x4533 (concat (concat (concat (concat (concat ?x2345 ?x2346) ?x2363) ?x2362) ?x2357) ?x2349)))
 (let ((?x4215 (concat ?x4533 ?x2364)))
 (let ((?x3812 (concat ?x4215 ?x2374)))
 (let ((?x3646 (bvmul (_ bv18446744073709551615 64) ?x3812)))
 (let ((?x3809 (concat (concat (concat (concat (concat ?x2400 ?x2401) ?x2411) ?x2410) ?x2417) ?x2429)))
 (let ((?x3823 (concat (concat ?x3809 ?x2419) ?x2427)))
 (let ((?x3827 (bvadd ?x3823 ?x3646)))
 (let ((?x2482 ((_ extract 63 63) ?x3827)))
 (let (($x2285 (= (_ bv1 1) ?x2482)))
 (or $x2285 $x9215)))))))))))))))))))))))))))))))))))))))))))))
(assert
 (= (_ bv4294967295 32) mem_c0001010_98_32))
(assert
 (let ((?x11985 ((_ extract 135 128) mem_c0000f45_79_992)))
 (let ((?x13685 ((_ extract 127 120) mem_c0000f45_79_992)))
 (let ((?x13262 ((_ extract 119 112) mem_c0000f45_79_992)))
 (let ((?x13139 ((_ extract 111 104) mem_c0000f45_79_992)))
 (let ((?x12096 ((_ extract 103 96) mem_c0000f45_79_992)))
 (let ((?x12093 ((_ extract 95 88) mem_c0000f45_79_992)))
 (let ((?x30386 (concat (concat ((_ extract 79 72) mem_c0000f45_79_992) ((_ extract 87 80) mem_c0000f45_79_992)) ?x12093)))
 (let ((?x30409 (concat (concat (concat (concat (concat ?x30386 ?x12096) ?x13139) ?x13262) ?x13685) ?x11985)))
 (= (_ bv18428729675200069633 64) ?x30409))))))))))
(assert
 (= (_ bv0 64) mem_ffc0000000000001_289_64))
(assert
 (let ((?x13083 ((_ extract 263 256) mem_c0000f45_79_992)))
 (let ((?x13003 ((_ extract 255 248) mem_c0000f45_79_992)))
 (let ((?x12053 ((_ extract 247 240) mem_c0000f45_79_992)))
 (let ((?x12815 ((_ extract 239 232) mem_c0000f45_79_992)))
 (let ((?x12323 ((_ extract 231 224) mem_c0000f45_79_992)))
 (let ((?x13650 ((_ extract 223 216) mem_c0000f45_79_992)))
 (let ((?x39222 (concat (concat ((_ extract 207 200) mem_c0000f45_79_992) ((_ extract 215 208) mem_c0000f45_79_992)) ?x13650)))
 (let ((?x40023 (concat (concat (concat (concat (concat ?x39222 ?x12323) ?x12815) ?x12053) ?x13003) ?x13083)))
 (let ((?x2427 ((_ extract 775 768) mem_c0000f45_79_992)))
 (let ((?x2419 ((_ extract 767 760) mem_c0000f45_79_992)))
 (let ((?x2429 ((_ extract 759 752) mem_c0000f45_79_992)))
 (let ((?x2417 ((_ extract 751 744) mem_c0000f45_79_992)))
 (let ((?x2410 ((_ extract 743 736) mem_c0000f45_79_992)))
 (let ((?x2411 ((_ extract 735 728) mem_c0000f45_79_992)))
 (let ((?x4124 (concat (concat ((_ extract 719 712) mem_c0000f45_79_992) ((_ extract 727 720) mem_c0000f45_79_992)) ?x2411)))
 (let ((?x4642 (concat ?x4124 ?x2410)))
 (let ((?x3823 (concat (concat (concat (concat ?x4642 ?x2417) ?x2429) ?x2419) ?x2427)))
 (let ((?x1161266 (bvsub ?x3823 ?x40023)))
 (let ((?x388266 ((_ extract 31 31) mem_ffc0000000000011_288_32)))
 (let ((?x612638 (concat (concat (concat (concat (concat ?x388266 ?x388266) ?x388266) ?x388266) ?x388266) ?x388266)))
 (let ((?x612350 (concat (concat (concat (concat (concat ?x612638 ?x388266) ?x388266) ?x388266) ?x388266) ?x388266)))
 (let ((?x610991 (concat (concat (concat (concat (concat ?x612350 ?x388266) ?x388266) ?x388266) ?x388266) ?x388266)))
 (let ((?x609564 (concat (concat (concat (concat (concat ?x610991 ?x388266) ?x388266) ?x388266) ?x388266) ?x388266)))
 (let ((?x612566 (concat (concat (concat (concat (concat ?x609564 ?x388266) ?x388266) ?x388266) ?x388266) ?x388266)))
 (let ((?x611125 (concat (concat (concat (concat (concat ?x612566 ?x388266) ?x388266) ?x388266) ?x388266) ?x388266)))
 (let ((?x610770 (concat (concat ?x611125 ?x388266) mem_ffc0000000000011_288_32)))
 (let ((?x14887 ((_ extract 327 320) mem_c0000f45_79_992)))
 (let ((?x14869 ((_ extract 319 312) mem_c0000f45_79_992)))
 (let ((?x14893 ((_ extract 311 304) mem_c0000f45_79_992)))
 (let ((?x14875 ((_ extract 303 296) mem_c0000f45_79_992)))
 (let ((?x14872 ((_ extract 295 288) mem_c0000f45_79_992)))
 (let ((?x14857 ((_ extract 287 280) mem_c0000f45_79_992)))
 (let ((?x15107 (concat (concat ((_ extract 271 264) mem_c0000f45_79_992) ((_ extract 279 272) mem_c0000f45_79_992)) ?x14857)))
 (let ((?x15071 (concat (concat (concat (concat (concat ?x15107 ?x14872) ?x14875) ?x14893) ?x14869) ?x14887)))
 (let ((?x96985 (bvmul (_ bv18446744073709551615 64) ?x15071)))
 (let ((?x15059 ((_ extract 199 192) mem_c0000f45_79_992)))
 (let ((?x15057 ((_ extract 191 184) mem_c0000f45_79_992)))
 (let ((?x15055 ((_ extract 183 176) mem_c0000f45_79_992)))
 (let ((?x15053 ((_ extract 175 168) mem_c0000f45_79_992)))
 (let ((?x15049 ((_ extract 167 160) mem_c0000f45_79_992)))
 (let ((?x15050 ((_ extract 159 152) mem_c0000f45_79_992)))
 (let ((?x21207 (concat (concat ((_ extract 143 136) mem_c0000f45_79_992) ((_ extract 151 144) mem_c0000f45_79_992)) ?x15050)))
 (let ((?x20542 (concat (concat (concat (concat (concat ?x21207 ?x15049) ?x15053) ?x15055) ?x15057) ?x15059)))
 (let ((?x97029 (bvadd ?x20542 ?x96985)))
 (let (($x610638 (bvsle ?x97029 ?x610770)))
 (let ((?x616895 (ite $x610638 ?x97029 ?x610770)))
 (let ((?x47620 (bvsub ?x20542 ?x15071)))
 (let ((?x1161342 (bvsub ?x47620 ?x616895)))
 (bvule ?x1161342 ?x1161266))))))))))))))))))))))))))))))))))))))))))))))))))
(assert
 (let ((?x388266 ((_ extract 31 31) mem_ffc0000000000011_288_32)))
 (let ((?x612638 (concat (concat (concat (concat (concat ?x388266 ?x388266) ?x388266) ?x388266) ?x388266) ?x388266)))
 (let ((?x612350 (concat (concat (concat (concat (concat ?x612638 ?x388266) ?x388266) ?x388266) ?x388266) ?x388266)))
 (let ((?x610991 (concat (concat (concat (concat (concat ?x612350 ?x388266) ?x388266) ?x388266) ?x388266) ?x388266)))
 (let ((?x609564 (concat (concat (concat (concat (concat ?x610991 ?x388266) ?x388266) ?x388266) ?x388266) ?x388266)))
 (let ((?x612566 (concat (concat (concat (concat (concat ?x609564 ?x388266) ?x388266) ?x388266) ?x388266) ?x388266)))
 (let ((?x611125 (concat (concat (concat (concat (concat ?x612566 ?x388266) ?x388266) ?x388266) ?x388266) ?x388266)))
 (let ((?x610770 (concat (concat ?x611125 ?x388266) mem_ffc0000000000011_288_32)))
 (let ((?x14887 ((_ extract 327 320) mem_c0000f45_79_992)))
 (let ((?x14869 ((_ extract 319 312) mem_c0000f45_79_992)))
 (let ((?x14893 ((_ extract 311 304) mem_c0000f45_79_992)))
 (let ((?x14875 ((_ extract 303 296) mem_c0000f45_79_992)))
 (let ((?x14872 ((_ extract 295 288) mem_c0000f45_79_992)))
 (let ((?x14857 ((_ extract 287 280) mem_c0000f45_79_992)))
 (let ((?x15107 (concat (concat ((_ extract 271 264) mem_c0000f45_79_992) ((_ extract 279 272) mem_c0000f45_79_992)) ?x14857)))
 (let ((?x15071 (concat (concat (concat (concat (concat ?x15107 ?x14872) ?x14875) ?x14893) ?x14869) ?x14887)))
 (let ((?x96985 (bvmul (_ bv18446744073709551615 64) ?x15071)))
 (let ((?x15059 ((_ extract 199 192) mem_c0000f45_79_992)))
 (let ((?x15057 ((_ extract 191 184) mem_c0000f45_79_992)))
 (let ((?x15055 ((_ extract 183 176) mem_c0000f45_79_992)))
 (let ((?x15053 ((_ extract 175 168) mem_c0000f45_79_992)))
 (let ((?x15049 ((_ extract 167 160) mem_c0000f45_79_992)))
 (let ((?x15050 ((_ extract 159 152) mem_c0000f45_79_992)))
 (let ((?x21207 (concat (concat ((_ extract 143 136) mem_c0000f45_79_992) ((_ extract 151 144) mem_c0000f45_79_992)) ?x15050)))
 (let ((?x20542 (concat (concat (concat (concat (concat ?x21207 ?x15049) ?x15053) ?x15055) ?x15057) ?x15059)))
 (let ((?x97029 (bvadd ?x20542 ?x96985)))
 (let (($x610638 (bvsle ?x97029 ?x610770)))
 (let ((?x616895 (ite $x610638 ?x97029 ?x610770)))
 (let ((?x1817488 ((_ extract 63 63) ?x616895)))
 (= (_ bv0 1) ?x1817488)))))))))))))))))))))))))))))))
(assert
 (let ((?x388266 ((_ extract 31 31) mem_ffc0000000000011_288_32)))
 (let ((?x612638 (concat (concat (concat (concat (concat ?x388266 ?x388266) ?x388266) ?x388266) ?x388266) ?x388266)))
 (let ((?x612350 (concat (concat (concat (concat (concat ?x612638 ?x388266) ?x388266) ?x388266) ?x388266) ?x388266)))
 (let ((?x610991 (concat (concat (concat (concat (concat ?x612350 ?x388266) ?x388266) ?x388266) ?x388266) ?x388266)))
 (let ((?x609564 (concat (concat (concat (concat (concat ?x610991 ?x388266) ?x388266) ?x388266) ?x388266) ?x388266)))
 (let ((?x612566 (concat (concat (concat (concat (concat ?x609564 ?x388266) ?x388266) ?x388266) ?x388266) ?x388266)))
 (let ((?x611125 (concat (concat (concat (concat (concat ?x612566 ?x388266) ?x388266) ?x388266) ?x388266) ?x388266)))
 (let ((?x610770 (concat (concat ?x611125 ?x388266) mem_ffc0000000000011_288_32)))
 (let ((?x14887 ((_ extract 327 320) mem_c0000f45_79_992)))
 (let ((?x14869 ((_ extract 319 312) mem_c0000f45_79_992)))
 (let ((?x14893 ((_ extract 311 304) mem_c0000f45_79_992)))
 (let ((?x14875 ((_ extract 303 296) mem_c0000f45_79_992)))
 (let ((?x14872 ((_ extract 295 288) mem_c0000f45_79_992)))
 (let ((?x14857 ((_ extract 287 280) mem_c0000f45_79_992)))
 (let ((?x15107 (concat (concat ((_ extract 271 264) mem_c0000f45_79_992) ((_ extract 279 272) mem_c0000f45_79_992)) ?x14857)))
 (let ((?x15071 (concat (concat (concat (concat (concat ?x15107 ?x14872) ?x14875) ?x14893) ?x14869) ?x14887)))
 (let ((?x96985 (bvmul (_ bv18446744073709551615 64) ?x15071)))
 (let ((?x15059 ((_ extract 199 192) mem_c0000f45_79_992)))
 (let ((?x15057 ((_ extract 191 184) mem_c0000f45_79_992)))
 (let ((?x15055 ((_ extract 183 176) mem_c0000f45_79_992)))
 (let ((?x15053 ((_ extract 175 168) mem_c0000f45_79_992)))
 (let ((?x15049 ((_ extract 167 160) mem_c0000f45_79_992)))
 (let ((?x15050 ((_ extract 159 152) mem_c0000f45_79_992)))
 (let ((?x21207 (concat (concat ((_ extract 143 136) mem_c0000f45_79_992) ((_ extract 151 144) mem_c0000f45_79_992)) ?x15050)))
 (let ((?x20542 (concat (concat (concat (concat (concat ?x21207 ?x15049) ?x15053) ?x15055) ?x15057) ?x15059)))
 (let ((?x97029 (bvadd ?x20542 ?x96985)))
 (let (($x610638 (bvsle ?x97029 ?x610770)))
 (let ((?x616895 (ite $x610638 ?x97029 ?x610770)))
 (let ((?x1817800 (bvmul (_ bv18446744073709551615 64) ?x616895)))
 (let ((?x1815852 (bvadd ?x97029 ?x1817800)))
 (and (distinct (_ bv0 64) ?x1815852) true))))))))))))))))))))))))))))))))
(maximize mem_c0000f45_79_992)
(maximize mem_ffc0000000000001_289_64)
(minimize mem_c0001010_98_32)
(maximize syscall_stub_newfstatat_83_64)
(minimize mem_ffc0000000000001_289_64)
(maximize mem_ffc0000000000011_288_32)
(minimize mem_ffc0000000000011_288_32)
(minimize mem_c0000f45_79_992)
(minimize syscall_stub_newfstatat_83_64)
(maximize mem_c0001010_98_32)
(check-sat)
(get-objectives)
